(set-info :smt-lib-version 2.7)
(set-logic ALL)
(set-info :source |
Generated on: 2026-06-22
Generator: pog2smtlib-2.7 github.com/CLEARSY/pog2smtlib-2.7 (-l HO_ALL -rpX)
Application: Discharging a proof obligation generated by aTelierB from an anonymized B machine
Target solver: CVC5 (--mbqi --enum-inst)
Time limit: 1200.0
|)
(set-info :license "www.gnu.org/licenses/gpl-3.0.en.html")
(set-info :category "industrial")
(set-info :status unknown)

(set-option :print-success false)
(define-sort |Z| () Int)
(declare-sort P 1)
(declare-datatype C (par (T1 T2) ((maplet (fst T1) (snd T2)))))
(declare-sort |s31| 0)
(define-sort |POW Z| () (P |Z|))
(define-sort |(s31 x Z)| () (C |s31| |Z|))
(define-sort |POW s31| () (P |s31|))
(declare-fun |set.in Z| (|Z| |POW Z|) Bool)
(define-sort |POW (s31 x Z)| () (P |(s31 x Z)|))
(declare-fun |set.in s31| (|s31| |POW s31|) Bool)
(declare-fun |set.in (s31 x Z)| (|(s31 x Z)| |POW (s31 x Z)|) Bool)
(define-sort |POW POW (s31 x Z)| () (P |POW (s31 x Z)|))
(declare-fun |rel.range s31 Z| (|POW (s31 x Z)|) |POW Z|)
(assert (!
  (forall ((r |POW (s31 x Z)|) (e |Z|))
    (= (|set.in Z| e (|rel.range s31 Z| r))
       (exists ((x |s31|)) (|set.in (s31 x Z)| (maplet x e) r))))
  :named |ax:set.in.range (s31 x Z)|))
(assert (!
  (forall ((s |POW s31|) (t |POW s31|))
    (=
      (= s t)
      (forall ((e |s31|)) (= (|set.in s31| e s) (|set.in s31| e t)))))
  :named |ax.set.eq s31|))
(declare-fun |set.in POW (s31 x Z)| (|POW (s31 x Z)| |POW POW (s31 x Z)|) Bool)
(declare-fun |surjections s31 Z| (|POW s31| |POW Z|) |POW POW (s31 x Z)|)
(assert (!
  (forall ((X |POW s31|) (Y |POW Z|))
    (forall ((f |POW (s31 x Z)|))
      (= (|set.in POW (s31 x Z)| f (|surjections s31 Z| X Y))
         (= (|rel.range s31 Z| f) Y)
      )))
  :named |ax:set.in.surjections (s31 x Z)|))
(declare-fun |injections s31 Z| (|POW s31| |POW Z|) |POW POW (s31 x Z)|)
(assert (!
  (forall ((X |POW s31|) (Y |POW Z|) (f |POW (s31 x Z)|))
     (= (|set.in POW (s31 x Z)| f (|injections s31 Z| X Y))
        (forall ((p |(s31 x Z)|) (q |(s31 x Z)|))
          (=> (and (|set.in (s31 x Z)| p f) (|set.in (s31 x Z)| q f) (= (snd p) (snd q)))
              (= (fst p) (fst q))))))
  :named |ax:set.in.injections (s31 x Z)|))
(declare-datatype Cardinals ( ( Infinite ) ( Finite ( Value Int ) )))
(declare-fun |interval| (|Z| |Z|) |POW Z|)
 (assert (!
    (forall ((l |Z|) (u |Z|) (e |Z|))
        (= (|set.in Z| e (|interval| l u))
            (and (<= l e) (<= e u))))
    :named |ax.set.in.interval|))
(declare-fun |bijections s31 Z| (|POW s31| |POW Z|) |POW POW (s31 x Z)|)
(assert (!
  (forall ((X |POW s31|) (Y |POW Z|))
    (forall ((f |POW (s31 x Z)|))
      (= (|set.in POW (s31 x Z)| f (|bijections s31 Z| X Y))
         (and (|set.in POW (s31 x Z)| f (|injections s31 Z| X Y))
              (|set.in POW (s31 x Z)| f (|surjections s31 Z| X Y))))))
  :named |ax:set.in.bijections (s31 x Z)|))
(declare-fun |card s31| (|POW s31|) Cardinals)
(assert (!
  (forall ((s |POW s31|))
    (or (= (|card s31| s) Infinite)
        (exists ((f |POW (s31 x Z)|))
          (|set.in POW (s31 x Z)| f (|bijections s31 Z| s (|interval| 1 (Value (|card s31| s))))))))
  :named |ax.card.definition s31|))
(declare-const |set.empty s31| |POW s31|)
(assert (!
  (forall ((e |s31|)) (not (|set.in s31| e |set.empty s31|)))
  :named |ax.set.in.empty s31|))
(assert (!
  (not
    (= 0 (Value (|card s31| |set.empty s31|))))
  :named |Goal|))
(check-sat)
(exit)
